presolving:
(round 1, fast)       13289 del vars, 12210 del conss, 0 add conss, 4209 chg bounds, 6081 chg sides, 813 chg coeffs, 0 upgd conss, 0 impls, 957 clqs
   (0.4s) running MILP presolver
   (0.6s) MILP presolver (2 rounds): 0 aggregations, 0 fixings, 0 bound changes
(round 2, exhaustive) 13289 del vars, 12280 del conss, 0 add conss, 4209 chg bounds, 6131 chg sides, 813 chg coeffs, 0 upgd conss, 0 impls, 957 clqs
(round 3, exhaustive) 13289 del vars, 12280 del conss, 0 add conss, 4209 chg bounds, 6131 chg sides, 813 chg coeffs, 908 upgd conss, 0 impls, 957 clqs
(round 4, medium)     13289 del vars, 12283 del conss, 6 add conss, 4209 chg bounds, 6139 chg sides, 837 chg coeffs, 908 upgd conss, 0 impls, 959 clqs
   (2.1s) probing: 1000/1428 (70.0%) - 0 fixings, 0 aggregations, 32188 implications, 0 bound changes
   (2.1s) probing: 1001/1428 (70.1%) - 0 fixings, 0 aggregations, 32266 implications, 0 bound changes
   (2.1s) probing aborted: 1000/1000 successive useless probings
   (2.1s) symmetry computation started: requiring (bin +, int -, cont +), (fixed: bin -, int +, cont -)
   (2.1s) no symmetry present
   (2.1s) symmetry computation started: requiring (bin +, int +, cont +), (fixed: bin -, int -, cont -)
   (2.1s) no symmetry present
presolving (5 rounds: 5 fast, 4 medium, 3 exhaustive):
 13289 deleted vars, 12284 deleted constraints, 6 added constraints, 4209 tightened bounds, 0 added holes, 6139 changed sides, 837 changed coefficients
 32266 implications, 959 cliques
presolved problem has 37906 variables (1428 bin, 1403 int, 0 impl, 35075 cont) and 3741 constraints
    910 constraints of type <setppc>
   2831 constraints of type <linear>
Presolving Time: 2.04

 time | node  | left  |LP iter|LP it/n|mem/heur|mdpt |vars |cons |rows |cuts |sepa|confs|strbr|  dualbound   | primalbound  |  gap   | compl. 
t 2.2s|     1 |     0 |     0 |     - | trivial|   0 |  37k|3741 |   0 |   0 |  0 |   0 |   0 | 1.475267e+06 | 0.000000e+00 |    Inf | unknown
 16.5s|     1 |     0 | 10423 |     - |   331M |   0 |  37k|3741 |3741 |   0 |  0 |   0 |   0 | 3.267233e+05 | 0.000000e+00 |    Inf | unknown
 27.4s|     1 |     0 | 17252 |     - |   336M |   0 |  37k|3741 |3743 |   2 |  1 |   0 |   0 | 3.106588e+05 | 0.000000e+00 |    Inf | unknown
 27.8s|     1 |     0 | 17368 |     - |   338M |   0 |  37k|3743 |3745 |   4 |  2 |   2 |   0 | 3.106571e+05 | 0.000000e+00 |    Inf | unknown
 29.2s|     1 |     0 | 18211 |     - |   338M |   0 |  37k|3743 |3749 |   8 |  3 |   2 |   0 | 2.963320e+05 | 0.000000e+00 |    Inf | unknown
 30.0s|     1 |     0 | 18774 |     - |   338M |   0 |  37k|3743 |3754 |  13 |  4 |   2 |   0 | 2.892942e+05 | 0.000000e+00 |    Inf | unknown
 30.5s|     1 |     0 | 18918 |     - |   339M |   0 |  37k|3743 |3756 |  15 |  5 |   2 |   0 | 2.892929e+05 | 0.000000e+00 |    Inf | unknown
 31.5s|     1 |     0 | 19542 |     - |   340M |   0 |  37k|3746 |3760 |  19 |  6 |   5 |   0 | 2.878061e+05 | 0.000000e+00 |    Inf | unknown
 31.9s|     1 |     0 | 19595 |     - |   341M |   0 |  37k|3748 |3762 |  21 |  7 |   7 |   0 | 2.852752e+05 | 0.000000e+00 |    Inf | unknown
 32.3s|     1 |     0 | 19676 |     - |   342M |   0 |  37k|3748 |3764 |  23 |  8 |   7 |   0 | 2.848303e+05 | 0.000000e+00 |    Inf | unknown
 33.0s|     1 |     0 | 20039 |     - |   342M |   0 |  37k|3752 |3767 |  26 |  9 |  11 |   0 | 2.844656e+05 | 0.000000e+00 |    Inf | unknown
 33.4s|     1 |     0 | 20110 |     - |   342M |   0 |  37k|3755 |3772 |  31 | 10 |  14 |   0 | 2.836263e+05 | 0.000000e+00 |    Inf | unknown
 33.9s|     1 |     0 | 20506 |     - |   343M |   0 |  37k|3756 |3776 |  35 | 11 |  15 |   0 | 2.836198e+05 | 0.000000e+00 |    Inf | unknown
 34.7s|     1 |     0 | 21259 |     - |   343M |   0 |  37k|3757 |3781 |  40 | 12 |  16 |   0 | 2.836146e+05 | 0.000000e+00 |    Inf | unknown
 35.0s|     1 |     0 | 21383 |     - |   344M |   0 |  37k|3757 |3787 |  46 | 13 |  16 |   0 | 2.836113e+05 | 0.000000e+00 |    Inf | unknown
 time | node  | left  |LP iter|LP it/n|mem/heur|mdpt |vars |cons |rows |cuts |sepa|confs|strbr|  dualbound   | primalbound  |  gap   | compl. 
 35.4s|     1 |     0 | 21856 |     - |   344M |   0 |  37k|3757 |3791 |  50 | 14 |  16 |   0 | 2.836083e+05 | 0.000000e+00 |    Inf | unknown
 35.8s|     1 |     0 | 22077 |     - |   344M |   0 |  37k|3758 |3797 |  56 | 15 |  17 |   0 | 2.836021e+05 | 0.000000e+00 |    Inf | unknown
 36.1s|     1 |     0 | 22240 |     - |   345M |   0 |  37k|3758 |3801 |  60 | 16 |  17 |   0 | 2.835988e+05 | 0.000000e+00 |    Inf | unknown
 36.6s|     1 |     0 | 22652 |     - |   345M |   0 |  37k|3759 |3805 |  65 | 17 |  18 |   0 | 2.835929e+05 | 0.000000e+00 |    Inf | unknown
 36.8s|     1 |     0 | 22746 |     - |   348M |   0 |  37k|3760 |3810 |  70 | 18 |  19 |   0 | 2.835881e+05 | 0.000000e+00 |    Inf | unknown
 36.9s|     1 |     0 | 22794 |     - |   348M |   0 |  37k|3760 |3817 |  77 | 19 |  19 |   0 | 2.835853e+05 | 0.000000e+00 |    Inf | unknown
 37.2s|     1 |     0 | 22925 |     - |   349M |   0 |  37k|3760 |3822 |  82 | 20 |  19 |   0 | 2.835810e+05 | 0.000000e+00 |    Inf | unknown
 37.3s|     1 |     0 | 22991 |     - |   349M |   0 |  37k|3760 |3827 |  87 | 21 |  19 |   0 | 2.835798e+05 | 0.000000e+00 |    Inf | unknown
 37.5s|     1 |     0 | 23011 |     - |   349M |   0 |  37k|3761 |3833 |  93 | 22 |  20 |   0 | 2.835782e+05 | 0.000000e+00 |    Inf | unknown
 37.8s|     1 |     0 | 23065 |     - |   349M |   0 |  37k|3762 |3834 | 100 | 23 |  21 |   0 | 2.835763e+05 | 0.000000e+00 |    Inf | unknown
 37.9s|     1 |     0 | 23083 |     - |   349M |   0 |  37k|3762 |3840 | 106 | 24 |  21 |   0 | 2.835756e+05 | 0.000000e+00 |    Inf | unknown
 38.1s|     1 |     0 | 23129 |     - |   349M |   0 |  37k|3763 |3846 | 112 | 25 |  22 |   0 | 2.835747e+05 | 0.000000e+00 |    Inf | unknown
d40.1s|     1 |     0 | 24882 |     - |farkasdi|   0 |  37k|3763 |3846 |   0 | 25 |  22 |   0 | 2.835747e+05 | 2.835349e+05 |   0.01%| unknown
L41.0s|     1 |     0 | 28642 |     - |    alns|   0 |  37k|3763 |3846 | 112 | 25 |2019 |   0 | 2.835747e+05 | 2.835497e+05 |   0.01%| unknown
(run 1, node 1) restarting after 399 global fixings of integer variables

(restart) converted 105 cuts from the global cut pool into linear constraints

presolving:
(round 1, fast)       15422 del vars, 1004 del conss, 0 add conss, 22313 chg bounds, 0 chg sides, 783 chg coeffs, 0 upgd conss, 32266 impls, 627 clqs
(round 2, fast)       15546 del vars, 1150 del conss, 0 add conss, 22456 chg bounds, 0 chg sides, 1083 chg coeffs, 0 upgd conss, 32266 impls, 620 clqs
(round 3, fast)       15572 del vars, 1166 del conss, 0 add conss, 22456 chg bounds, 0 chg sides, 1083 chg coeffs, 0 upgd conss, 32266 impls, 604 clqs
   (41.3s) running MILP presolver
   (41.4s) MILP presolver (2 rounds): 0 aggregations, 0 fixings, 82 bound changes
(round 4, exhaustive) 15572 del vars, 1180 del conss, 0 add conss, 22538 chg bounds, 0 chg sides, 1083 chg coeffs, 0 upgd conss, 32266 impls, 604 clqs
(round 5, exhaustive) 15572 del vars, 1180 del conss, 0 add conss, 22538 chg bounds, 0 chg sides, 1083 chg coeffs, 90 upgd conss, 32266 impls, 604 clqs
(round 6, exhaustive) 15572 del vars, 1195 del conss, 0 add conss, 22538 chg bounds, 0 chg sides, 1088 chg coeffs, 90 upgd conss, 32314 impls, 604 clqs
presolving (7 rounds: 7 fast, 4 medium, 4 exhaustive):
 15572 deleted vars, 1195 deleted constraints, 0 added constraints, 22538 tightened bounds, 0 added holes, 0 changed sides, 1093 changed coefficients
 32314 implications, 606 cliques
presolved problem has 22460 variables (1143 bin, 917 int, 0 impl, 20400 cont) and 2673 constraints
     83 constraints of type <varbound>
      3 constraints of type <knapsack>
    490 constraints of type <setppc>
   2075 constraints of type <linear>
     22 constraints of type <bounddisjunction>
Presolving Time: 2.42
transformed 4/4 original solutions to the transformed problem space

 time | node  | left  |LP iter|LP it/n|mem/heur|mdpt |vars |cons |rows |cuts |sepa|confs|strbr|  dualbound   | primalbound  |  gap   | compl. 
 44.9s|     1 |     0 | 35787 |     - |   355M |   0 |  22k|2658 |2637 |   0 |  0 |2019 |   0 | 2.835723e+05 | 2.835497e+05 |   0.01%| unknown
 45.0s|     1 |     0 | 35787 |     - |   355M |   0 |  22k|2658 |2232 |   0 |  0 |2019 |   0 | 2.835723e+05 | 2.835497e+05 |   0.01%| unknown
 45.1s|     1 |     0 | 35795 |     - |   357M |   0 |  22k|2253 |2233 |   3 |  1 |2019 |   0 | 2.835690e+05 | 2.835497e+05 |   0.01%| unknown
 45.1s|     1 |     0 | 35795 |     - |   357M |   0 |  22k|2254 |2232 |   3 |  1 |2020 |   0 | 2.835690e+05 | 2.835497e+05 |   0.01%| unknown
 45.2s|     1 |     0 | 35818 |     - |   357M |   0 |  22k|2253 |2236 |   7 |  2 |2020 |   0 | 2.835679e+05 | 2.835497e+05 |   0.01%| unknown
 45.2s|     1 |     0 | 35818 |     - |   357M |   0 |  22k|2253 |2236 |   7 |  2 |2020 |   0 | 2.835679e+05 | 2.835497e+05 |   0.01%| unknown
 45.3s|     1 |     0 | 35885 |     - |   357M |   0 |  22k|2253 |2242 |  13 |  3 |2020 |   0 | 2.835653e+05 | 2.835497e+05 |   0.01%| unknown
 45.4s|     1 |     0 | 35885 |     - |   358M |   0 |  22k|2254 |2238 |  13 |  3 |2021 |   0 | 2.835653e+05 | 2.835497e+05 |   0.01%| unknown
 45.4s|     1 |     0 | 35909 |     - |   358M |   0 |  22k|2251 |2242 |  17 |  4 |2021 |   0 | 2.835645e+05 | 2.835497e+05 |   0.01%| unknown
 45.5s|     1 |     0 | 35909 |     - |   358M |   0 |  22k|2252 |2242 |  17 |  4 |2022 |   0 | 2.835645e+05 | 2.835497e+05 |   0.01%| unknown
 45.6s|     1 |     0 | 35947 |     - |   359M |   0 |  22k|2252 |2247 |  22 |  5 |2022 |   0 | 2.835632e+05 | 2.835497e+05 |   0.00%| unknown
 45.6s|     1 |     0 | 35947 |     - |   359M |   0 |  22k|2253 |2247 |  22 |  5 |2023 |   0 | 2.835632e+05 | 2.835497e+05 |   0.00%| unknown
 45.7s|     1 |     0 | 35965 |     - |   359M |   0 |  22k|2253 |2252 |  27 |  6 |2023 |   0 | 2.835622e+05 | 2.835497e+05 |   0.00%| unknown
 45.7s|     1 |     0 | 35965 |     - |   359M |   0 |  22k|2254 |2252 |  27 |  6 |2024 |   0 | 2.835622e+05 | 2.835497e+05 |   0.00%| unknown
 45.8s|     1 |     0 | 35993 |     - |   359M |   0 |  22k|2254 |2257 |  32 |  7 |2024 |   0 | 2.835594e+05 | 2.835497e+05 |   0.00%| unknown
 time | node  | left  |LP iter|LP it/n|mem/heur|mdpt |vars |cons |rows |cuts |sepa|confs|strbr|  dualbound   | primalbound  |  gap   | compl. 
 45.9s|     1 |     0 | 35993 |     - |   359M |   0 |  22k|2254 |2257 |  32 |  7 |2024 |   0 | 2.835594e+05 | 2.835497e+05 |   0.00%| unknown
 45.9s|     1 |     0 | 36033 |     - |   360M |   0 |  22k|2254 |2262 |  37 |  8 |2024 |   0 | 2.835567e+05 | 2.835497e+05 |   0.00%| unknown
 46.0s|     1 |     0 | 36033 |     - |   360M |   0 |  22k|2254 |2262 |  37 |  8 |2024 |   0 | 2.835567e+05 | 2.835497e+05 |   0.00%| unknown
 46.1s|     1 |     0 | 36063 |     - |   360M |   0 |  22k|2254 |2269 |  44 |  9 |2024 |   0 | 2.835515e+05 | 2.835497e+05 |   0.00%| unknown
 46.1s|     1 |     0 | 36063 |     - |   360M |   0 |  22k|2254 |2269 |  44 |  9 |2024 |   0 | 2.835515e+05 | 2.835497e+05 |   0.00%| unknown
 46.2s|     1 |     0 | 36090 |     - |   360M |   0 |  22k|2254 |2273 |  50 | 10 |2024 |   0 | 2.835500e+05 | 2.835497e+05 |   0.00%| unknown
 46.3s|     1 |     0 | 36090 |     - |   360M |   0 |  22k|2254 |2273 |  50 | 10 |2024 |   0 | 2.835500e+05 | 2.835497e+05 |   0.00%| unknown
 46.3s|     1 |     0 | 36093 |     - |   363M |   0 |  22k|2254 |2276 |  53 | 11 |2024 |   0 | 2.835497e+05 | 2.835497e+05 |   0.00%| unknown
 46.3s|     1 |     0 | 36093 |     - |   363M |   0 |  22k|2254 |2276 |  53 | 11 |2024 |   0 | 2.835497e+05 | 2.835497e+05 |   0.00%| unknown

SCIP Status        : problem is solved [optimal solution found]
Solving Time (sec) : 46.32
Solving Nodes      : 1 (total of 2 nodes in 2 runs)
Primal Bound       : +2.83549666092323e+05 (4 solutions)
Dual Bound         : +2.83549666092323e+05
Gap                : 0.00 %
Solve Status: optimal
Solve Time: 46.34 seconds
